6-21-110-82-14-69-67-141-97-100-
61-62-115-140-30-96-39-26-114-35-
80-24-22-25-4-122-5-106-137-83-
43-128-148-31-56-146-42-143-88-50-
9-19-27-131-1-120-40-95-75-60-
79-8-18-124-65-116-89-10-44-92-
147-0-76-135-130-86-101-13-144-38-
59-119-48-99-36-102-87-66-17-64-
74-90-11-70-52-104-63-94-145-23-
105-126-133-41-57-47-149-109-78-68-
53-54-28-142-91-123-77-29-34-129-
139-118-125-16-49-112-33-85-138-7-
55-72-20-127-37-84-103-15-132-81-
58-121-73-136-98-117-3-93-51-45-
12-46-108-134-107-32-71-113-2-111-
6